/* 52 */

/* Objective function */
min: +C3;

/* Constraints */
+1.5 C1 +2.4 C2 -C3 <= -0.09;
+3.5 C1 +2.67 C2 -C3 <= -0.09;
-4166666666.7 C2 -C3 <= -0.09;
-6666666670.57 C1 +2.4 C2 -C3 <= -0.09;
R5: -C3 <= -0.09;
R6: -C3 <= -0.09;
R7: -C3 <= -0.09;
R8: -C3 <= -0.09;
R9: -C3 <= -0.09;
R10: -C3 <= -0.09;
R11: -C3 <= -0.09;
R12: -C3 <= -0.09;
R13: -C3 <= -0.09;
R14: -C3 <= -0.09;
R15: -C3 <= -0.09;
R16: -C3 <= -0.09;
R17: -C3 <= -0.09;
R18: -C3 <= -0.09;
R19: -C3 <= -0.09;
R20: -C3 <= -0.09;
R21: -C3 <= -0.09;
R22: -C3 <= -0.09;
R23: -C3 <= -0.09;
R24: -C3 <= -0.09;
R25: -C3 <= -0.09;
R26: -C3 <= -0.09;
R27: -C3 <= -0.09;
R28: -C3 <= -0.09;
R29: -C3 <= -0.09;
R30: -C3 <= -0.09;
R31: -C3 <= -0.09;
R32: -C3 <= -0.09;
R33: -C3 <= -0.09;
R34: -C3 <= -0.09;
R35: -C3 <= -0.09;
R36: -C3 <= -0.09;
R37: -C3 <= -0.09;
R38: -C3 <= -0.09;
R39: -C3 <= -0.09;
R40: -C3 <= -0.09;
R41: -C3 <= -0.09;
R42: -C3 <= -0.09;
R43: -C3 <= -0.09;
R44: -C3 <= -0.09;
R45: -C3 <= -0.09;
R46: -C3 <= -0.09;
R47: -C3 <= -0.09;
R48: -C3 <= -0.09;
R49: -C3 <= -0.09;
R50: -C3 <= -0.09;
R51: -C3 <= -0.09;
R52: -C3 <= -0.09;
R53: -C3 <= -0.09;
R54: -C3 <= -0.09;

/* Variable bounds */
C1 >= -10000000000;
C2 >= -10000000000;
C3 >= -10000000000;
